
 102   30
  10   10   10   10   10   10   10   10   10   10   10   10   10   10   10   10   10   10   10   10   10   10   10   10   10   10   10   10   10   10

   0   0   0   0   0   0   0   0   0   0   0   0   0   0   0   0   0   0   0   0   0   0   0   0   0   0   0   0   0   0   0  28 2 3 4 5 6 7 8 9 10 11 12 13 15 16 17 18 19 21 23 24 25 26 27 28 31 32 33 36 
   8   1   3   0   0   1   2   0   1   0   0   0   0   0   0   0   0   0   0   1   0   0   0   0   0   1   0   0   6   0   0  18 96 76 75 74 67 64 63 62 61 59 53 52 44 42 40 39 35 29 
   1   0   0   0   0   0   0   0   0   0   0   0   0   0   0   0   0   1   0   0   0   0   0   0   0   8   0   0   0   0   0  12 98 76 62 55 51 50 47 42 38 35 29 20 
   2  10   0   0   1   0   0   0   0   0   2   0   0   0   0   1   0   0   0   0   0   0   0   0   0   7   1   1   0   0   0  10 75 60 59 58 55 53 48 46 42 14 
   5   0   0   0   6   0   4   0   0   0   0   0   0   0   0   0   0   0   1   0   0   1   0   0   0   0   0   0   0   0   0  11 99 97 75 64 62 57 56 44 38 35 22 
   7   0   0   0   0   0   0   0  10   0   0   0   1   0   0   0   0   0   6   0   1   0   3   0   0   0   0   0   0   0   0  13 98 95 74 63 58 53 52 48 47 43 42 34 30 
   7   0   0   0   3   0   0   0   0   0   0   0   0   0   2   3   0   0   0   0   0   0   0   0   0   0   0   0   0   1   0  13 96 75 74 64 62 60 59 58 48 46 40 37 29 
   9   0   0   0   0   0   0   2   0   0   0   0   0   0   0   0   0   6   0   0   0   0   0   0   0   0   0   0   0   0   0  15 99 98 96 95 76 74 73 67 62 59 55 48 42 41 29 
   8   0   0   1   0   0   0   6   0   0   6   0   0   0   6   0   1   0   0   0   4   0   0   0   0   0   7   0   2   0   0  15 101 98 97 96 95 75 74 73 64 60 59 50 46 41 29 
   9   0   0   0   8   6   0   0   0   0   0   0   0   0   0   0   0   0  10   5   0   0   0   0   0   0   6   0   0   0   0  19 100 96 95 75 72 70 67 64 63 61 58 57 56 55 54 52 48 42 39 
   9   0   0   0   0   8   0   0   0   0   0   0   0   0   0   5   0   0   0   0   0   0   0   0   0   0   0   4   7   0   0  17 99 96 95 92 76 73 64 63 61 60 56 55 51 48 41 40 39 
   9   0   0   0   0   3   8   0   0   4   0   0   0   0   0   0   0   0   0   0   0   0   0   0   0   0   0   5   0   0   0  16 98 97 96 95 91 75 74 73 70 64 62 61 58 52 46 29 
   6   0   0   0   0   0   0   9   0   0   0   0   8   3   0   0   0   0   8   0   0   0   0   0   0   0   6   0   0   0   0  12 99 98 95 74 62 61 59 55 50 48 47 29 
   7   0   0   0   0  10   0   5   0   0   0   0   0   0   0   0   0   0   0   0   0   0   0   0   0   0   0   0   0   0   0  16 100 98 97 94 74 73 72 71 67 65 62 56 52 51 47 37 
   4   5   0   0   0   0   5   0   0   0   0   0   0   3   0   0   0   0   3   0   0   0   0   0   0   0   0   0   0   0   0  21 101 100 99 96 95 93 91 90 89 74 73 72 70 65 64 63 61 58 57 52 48 
   4   0   0   0   0   0   0   0   0   0   0   0   0   0   0   0   0   0   9   0   0   0   0   0   0   0   0   0   0   0   0  18 101 98 94 90 84 75 74 72 70 67 66 64 62 61 58 56 54 45 
   8   0   0   0   0   0   0   0   0   4   0   1   0   5   0   0   5   0   4   0   0   0   0   0   0   0   0   6   0   0   0  17 98 97 94 88 84 76 75 74 73 72 68 62 59 57 55 49 45 
   5   0   0   0   0   0   0   0   0   0   0   0   0   0   0   0   7   0   0   7   0   5   0   0   0   0   0   0   0   0   0  13 100 99 98 92 89 73 72 55 52 51 50 47 41 
   7   0   0   0   0   0   0   0  10   0   6   5   0   0   0   0   0   0   3   0   0   0   0   0   0   0   7   7   0   0   0  18 99 98 96 94 91 90 84 74 71 70 67 65 61 58 55 54 52 42 
   2   0   0   0   0   0   4   0   0   0   0   0   0   0   5   0   6   0   0   0   0   0   0   0   0   0   0   0   0   0   0  15 100 99 95 91 90 89 74 73 72 70 64 61 56 52 48 
  10   0   0   0   0   0   0  10   0   0   0   0   0   0   4   0   0   0   0   0   0   0   0   0   0   0   0   3   0   0   0  15 101 100 99 94 92 91 89 88 85 84 76 73 61 57 38 
   8   0   0   0   0   0   0   0   0   0   0   0   0   0   0   0   0   0   0   0   0   0   0   0   4   0   5   0   0   0   0  12 101 96 94 89 76 69 66 61 58 55 53 45 
  10   0   0   0   0   0   0   0   0   0   0   0   6   7   0   0   0   0   0   0   0   4   0   0   0   0   0   0   0   0   0  14 101 99 97 96 95 92 90 89 87 85 76 70 57 41 
   6   0   0   0   0   0   0   8   0   0   0   0   0   0   9   4   0   0   0   6   0   0   0   0   0   0   0   0   0   0   0  22 101 100 99 98 97 96 95 94 92 91 89 88 86 85 84 83 82 71 70 68 67 55 
   6   7   0   0  10   0   0   0   0   0   0   0   0   0   0   0   0   0   0   0   0   0   0   0   0   0   0   0   3   0   0  16 99 98 93 92 91 86 83 76 71 65 64 63 62 58 52 51 
   2   0   0   0   0   0   0   0   0   0   0   0   0   0   5   0   0   0   5   0   0   0   0   0   0   0   0   8   0   0   0  13 100 98 96 91 82 75 74 73 69 68 66 55 48 
   4   0   0   0   0   0   0   0   0   0   0   0  10   0   0   0   0   0   0   0   0   0   0   0   3   0   0   0   0   0   0  17 100 98 97 96 93 90 89 88 87 86 85 80 76 72 66 64 46 
  10  10   0   0   0   0   0   0   0   0   0   0   0   0   4   9   0   0   3   0   0   8   0   0   4   0   5   0   0   0   0  11 101 95 93 75 71 70 69 66 62 61 39 
   4   3   6   0   0   0   0   0   0   0   0   0   0   0   0   0   0   5   0   0   0   0   0   0   0   0   0   0   0   0   1  16 100 94 93 92 90 89 86 85 84 82 79 72 71 65 57 56 
   2   0   0   0   0   0   7   0   0   0   0   0   0   0   0   0   0   0   0   0   0   6   7   0   0   0   0   0   0   0   0  14 99 96 92 91 90 89 84 83 82 72 71 70 56 55 
   2   0   0   0   0   0   0   0   0   0   0   0   0   0   0   0   0   8   0   7   0   0  10   0   5   0   0   0   0   0   0  13 97 93 92 91 90 88 87 85 83 73 72 69 47 
   7   9   0   0   0   0   0   0   0   0   0   0   8   0   0   0   0   0   0   5   0   0   0   1   0   0   0   0   0   0   0  14 95 88 86 85 84 83 82 79 75 74 69 65 64 55 
  10   0   0   0   8   0   0   0   3   0   0   0   0   0   0   0   0   0   0   0   0   0   0   0   0   0   0   7   0   0   0  16 94 93 90 88 86 84 83 82 80 76 75 73 72 70 66 64 
   9   0   0   0   0   8   0   0   0   8   0   0   0   0   0   3   0   0   0   0   0   0   0   0   0   0   0   0   0   0   0  15 100 99 94 92 91 90 88 85 84 83 82 73 68 67 55 
   6   0   0   0   0   0   0   0   0   0   0   0   0   5   0   0   0   0   0   0   0   0   0   0   5   0   0   7   0   0   0   8 95 94 93 89 87 79 72 41 
   6   0   0   5   0   0   0   0   0   0   0   0   0   0   0   0   0   4   0   0   0   0   0   0   0   0   0   0   0   7   0  12 100 97 92 91 86 85 84 80 73 68 67 61 
   5   0   0   0   4   0   0   0   0   0   0   0   0   0   0   0   0   0   0   0   0   0   0   0   0   0   0   0   0   0   0  13 101 95 93 92 91 90 89 86 80 79 69 68 61 
   9   0   3   0   0   0   0   8   0   6   0   0   0   0   0   0   0   0   0   8   0   0   0   0   0   6   0   0   0   0   0   8 95 87 86 82 72 68 66 59 
   9   0   0   0   0   0   0   0   0   0   0   0   0   9   0   0   0   0   0   0   0   0   0   0   0   0   0   0   0   0   0  12 98 97 91 90 89 86 85 84 81 80 79 68 
   5   3   0   8   0   0   0   0   7   0   0   4   0   0   0   0   0   0   7   0  10   7   0   8   0   0   0   0   0   0   0  11 101 89 88 86 85 84 83 81 79 68 66 
   7   8   6   0   0   0   0   0   0   0   0   0   0   0   0   0   9   0   0   0   0   0   0   0   0   4   0   0   0   0   0   8 91 86 84 83 78 71 68 58 
   3   0   0   0   0   0   0   8   0   5   0   0   0   0   0   0   0   6   0   0   7   0   0   0   0   0   0   0   0   0   0  11 92 89 88 87 86 85 83 79 78 69 68 
   3   0   0   4   0   0   0   4   0   0   0   0   0   0   6   0   0   0   0   0   0   0   3   0   0   0   0   0   0   9   0  10 96 94 89 85 83 81 80 79 72 66 
   4   0   0   0   0   0   0   0   0   4   0   0   3   0   0   0   0  10   0   0   0   0   0   7   0   0   0   0   0   0   0   6 100 98 84 82 70 55 
   9   0   0   0   0   0   0   0   0   0   0   0   7   0   0   0   0   0   6   0   0   0   0   0   0   0   0   0   0   0   0  10 95 92 91 86 85 82 80 78 77 71 
   6   5   0   0   0   0   5   0   0   0   0   0   0   0   0   0   7   0   0   0   0   8   0   0   0   0   0   0   0   0   0   9 99 84 83 82 79 78 71 69 68 
   5   0   0   0   0   0   0   0   0   0   0   0   0   0   0   6   0   6   0   0   0   0   0   0   0   0   0   0   0   0   0   7 96 86 82 81 80 70 64 
   3   0   0   0   0   0   0   0   0   0   6   0   0   0   0   0   0   0   0   0   0   0   0   0   4   0   0   0   0   0   0  10 97 94 88 86 85 84 83 80 79 77 
   2   0   0   0   0   6   0   0   0   0   0   9   4   8   0   0   0   0   0   0   0   0   8   0   0   0   0   0   0   0   0   9 95 90 89 85 83 81 80 77 70 
   8   0   0   0   0   0   0   0   0   0   0   0   0   0   0   6   0   0   0   0   0   0   0   9   0   0   0   0   0   0   0   8 94 91 85 83 80 79 71 68 
  10   0   0   0   0   0   0   0   0   0   0   0   0   0   0   7   8   0   0   0   0   0   0   0   0   0   0   0   0   0   0   7 90 85 84 81 80 79 66 
  10   0   0   9   0   0   0   0   0   0   6   0   0   0   0   4   0   7   0   0   0   0   0   7   8   0   0   0   0   0  10   5 85 82 80 78 68 
   5   0   0   3   0   0   3   0   0   0   0   0   0   0   0   0   0   0   0   0   0   0   0  10   0   8   0   0   0   0   0   5 90 84 82 81 68 
   3   0   0   0   0   0   0   0   0   0   0   7   0   8   0   0   0   0   0   6   0   0   0   0   0   0   0   0   0   0   0   5 88 82 80 77 73 
   2   0   0   0   0   0   0   0   0   7   0   0   0   0   0   0   0   0   0   0   6   0   0   0   0   5   0   0   0   0   0   5 93 87 81 80 78 
   9   0  10   0   0   6   0   6   0   0   0   0   0   0   0   0   0   0   0   9   0   0   0   0   0   0   0   0   0   0   6   4 88 87 69 68 
   3   0   0   0   0   0   0   0   0   0   0   0   0   0   0   8  10   0   0   0   0   6   0   0   0   0   0   0   0   0   0   3 80 69 66 
   2   0   0   0   6   0   0   0   0   0  10   0   0   0   0   0   5   0   0   0   0   0   0   0   3   0   5   0   0   0   0   4 88 82 80 77 
   1   0   0   0   0   0   0   0   0   0   0   0   0   0   0   0   0   0   0   0   0   0   0   0   0   0   0   0   6   5   0   3 90 81 70 
   7   0   0   0   8   0   0   0   0   0   0   0   0  10   0   0   4   0   0   0   0   0   8   6   0   0   0   0   0   0   0   3 87 77 70 
   5   0   0   0   0   0   0   0   0   0   0   0   0   0   0   0   0   0   0   0   0   0   0   0   0   0   7   0  10   5   0   3 83 82 78 
   8   7   0   0   0   0   0   0   7   0   0   0   0   4   0   0   0   0   0   0   0   0   0   0   0   0   0   0   0   0   0   3 80 78 77 
   8   0   0  10   0   0   0   0   6   0   0   0   0   0   0   0   0   0   0   0   0   0   0   0   0   0   0   0   0   0   0   3 87 80 79 
   9   0   0   0   0   0   0   0   0   0   0   0   0   0   0   0   0   0   0   0   0   0   0   0  10   5   0   0   0   0   0   2 78 68 
   5   8  10   0   0   6   5   0   0   0   0   0   0   0   0   0   0   0   0   0   0   0   0   3   0   0   0   0   0   0   0   2 78 68 
  10   0   0   0   0   5   0   0   0   0   0   7   0   0   0   0   0   0   0   0   0   7   0   0   0   0   0   0   0   0   0   2 78 77 
   8   0   0   0   0   4   0   0   0   0   7   0   0   0   0   6   0   0   0   0   0   0   0   0   8   0   0   0   0   0   0   2 87 79 
   7   0   0   0   0   0   0   0   0   0   0   0   0   8   0   0   0   0   0   0   0   0   9   0   0   9   0   0   0   0   0   1 77 
  10   4   0   0   0   0   0   0   0   0   8   0   0   3   0   7   0   0   0   0   0   4   0   0   0   0   0   0   0   0   0   1 77 
   9   0   0   0   0   0   0   0   7   0   0   0   0   0   0   7   0   0   0   0   0   0   0   0   0   0   0   0   0   0   0   1 79 
   9   0   0   0   0   0   0   0   5   0   0   6  10   0   0   0   0   5   0   7   0   0   0   5   0   0   0   0   0   0   0   1 81 
   6   0   4   0   0   0   8   0   0   0   0   0   0   0   0   0   5   0   0   3   9   0   0   3   0   0   0   0   0   6   0   1 78 
   9   0   0   0   9   0   0   0   0  10   0   0   0   0   0   0   0   0   0   0   0   0   6   0   0   0   8   0   0   0   7   1 81 
   4   0   0   0   4   0   0   0   0   0   0   0   6   0   0   0   0   6   0   0   4   0   4   0   0   0   0   0   0   0   0   1 92 
   1   0   0   0   5   8   0   0   0   0   3   0   0   0   0   0   0   0   0   0   0   0   0   0   0   0   0   0   0   0   0   1 89 
   2   6   0   0   0   0   0   0   0   0   0   0   5   0   0   0   0   0   0   0   0   0   0   4  10   0   0   0   0   0   0   1 79 
   4   0   0   0   0   0  10   0   0   0   0   0   0   6   0   9   0   0   0   0   0   8   0   0   6   0   0   0   0   0   0   1 102
   1   0   0   0   2   4   0   0   7   0   0   0   0   5   0   0   0   0   0   0   0   0   0   0   0   0   0   0   0   0   0   1 102
   2   0   0   0   6   0   0   0   8   0   0   0   0   0   5   6   0   0   0   0   0   0   4   0   0   6   8   0   0   0   0   1 102
   4   0   0   8   0   5   0   0   0   0   0   3   0   0   0   0   0   6   0   0   0   8   0   5   0   7   9   7   0   0   0   1 102
   7   0   0   6   0   6   0   0   0   0   0   0   0   0   0   0   0   0   7   0   0   0   0   0   0   0   0   0   0   0   0   1 102
   4   0   0   0   4   0   0   0   0   0   4   0   0   0   0   0   0   0   0   0   0   0   0   0   0   0   0   0   6   0   0   1 102
   5   0   0   0   0   0   0   0   5   0   0   0   0   0   0   6   0   0  10   0   0   0   0   0   0   0   0   0   0   0   0   1 102
   2   0   5   0   0   0   0   4   0   0   0   0   0   0   0   0   0   9   0   0   0   0   5   0   0   0   3   0   0   0   0   1 102
   3   0   0   0   0   0   0   0   0   0   0   0   0   0  10   9   0   6   0   0   0   0   0   0   0   0   0   0   0   0   0   1 102
   6   0   0   0   0   0   0   0   0   0   0   0   4   0   0   0   0   0   0   0   0   6   8   0   0   7   0   0   0   0   0   1 102
   2   0   0   6   0  10   0   0   0   0   0   0   0   0   0   0   7   0   0   0   0   0   3   0   0   0   0   0   0   0   0   1 102
   4   0   0   0   0   0   7   0   4   0   0   0   0   0   0   0   0   0   0   7   0   5   0   0   0   0   0   0   0   0   0   1 102
   9   0   0   0   0   0   7   2   7   0   0   0   0   0   0   0   0   0   0   0   0   0   0   0   0   0   0   0   0   0   0   1 102
   3   0   0   0   9   0   0   0   0   0   0   0   0   0   0   0   7   0   9   0   0   0   0   0   0   0   0   0   0   0   0   1 102
  10   0   0   0   0   0   0   0   0   0   0   9   0   0  10   0   0   0   0   0   0   0   0   0   8   0   0   0   0   0   0   1 102
   1   0   0   0   0   0   0   0   0   0   8   0   0   0   0   0   0   0   0   0  10   0   0   0   0   0   0   0   4   8   0   1 102
   7   0   0   0   0   0   0   0   0   0   0   0   0   0   0   0   0   0   0   0   0   0   0   0   0   0   7   0   0   0   0   1 102
   3   0   0   0   5   0   0   0   0   0   0   0   0   0   0   0   3   0   0   0   0   0   0   0   0   0   0   0   0   0   0   1 102
  10   0   0   0   0   0   0   0   0   0   0   0   0   0   0   0   0   0   5   0   0   0   0   8   5   7   0   0   0   0   0   1 102
   5   0   7   0   0   0   0   0   0   0   0   0   0   0   0   0   0   0   0   0   0   0   0   0   7   0   0   0   9   0   0   1 102
   2   0   0   0   0   0   0   0   6   0   0   7   0   0   0   8   0   6   0   0   3   0   0   8   0   4   0   9   7   0   0   1 102
   2   4   0   0   0   0   0   0   0   0   0   0   0   0   0   0   0   5   0   0   0   4   0   0   0   0   0   0   0   0   0   1 102
   5   0   0   0   0   0   9   0   0   0   0   8   0   0   0   0   0   0   0   0   7   9   0   0   0   0   0   9   0   0   0   1 102
   7   0   0   0   0   0   0   0   3   0   0   0   0   0   0   0   6   0   0   7   0   0   0   0   0   0   0   5   0   7   0   1 102
   8   0   0   0  10   0   0   0   0   0   0   0   0   0   6   0   0   0   0   0   5   0   0   0   0   0   0   0   0   6   0   1 102
   0   0   0   0   0   0   0   0   0   0   0   0   0   0   0   0   0   0   0   0   0   0   0   0   0   0   0   0   0   0   0   0 
